Version identifier: 12.10.0.0 | 2019-11-26 | 843d4de
CPXPARAM_WorkMem                                 28672
Tried aggregator 2 times.
Aggregator did 30 substitutions.
Reduced MIP has 103 rows, 120 columns, and 480 nonzeros.
Reduced MIP has 120 binaries, 0 generals, 0 SOSs, and 0 indicators.
Presolve time = 0,00 sec. (0,45 ticks)
Found incumbent of value 90,000000 after 0,00 sec. (0,81 ticks)
Probing time = 0,00 sec. (0,17 ticks)
Tried aggregator 1 time.
Detecting symmetries...
MIP Presolve eliminated 21 rows and 0 columns.
MIP Presolve added 42 rows and 0 columns.
Reduced MIP has 124 rows, 120 columns, and 501 nonzeros.
Reduced MIP has 120 binaries, 0 generals, 0 SOSs, and 0 indicators.
Presolve time = 0,00 sec. (0,61 ticks)
Probing time = 0,00 sec. (0,17 ticks)
Clique table members: 340.
MIP emphasis: balance optimality and feasibility.
MIP search method: dynamic search.
Parallel mode: deterministic, using up to 16 threads.
Root relaxation solution time = 0,00 sec. (0,38 ticks)

        Nodes                                         Cuts/
   Node  Left     Objective  IInf  Best Integer    Best Bound    ItCnt     Gap

*     0+    0                           90,0000        0,0000           100,00%
*     0+    0                           65,0000        0,0000           100,00%
*     0+    0                           64,0000        0,0000           100,00%
      0     0       30,0000   114       64,0000       30,0000       46   53,12%
      0     0       31,0689   114       64,0000     Cuts: 131      111   51,45%
      0     0       32,3156   114       64,0000      Cuts: 80      140   49,51%
      0     0       32,6559   114       64,0000      Cuts: 53      162   48,98%
      0     0       32,8356   114       64,0000       Cuts: 6      176   48,69%
      0     0       32,8908   114       64,0000       Cuts: 4      186   48,61%
      0     0       39,6476   114       64,0000     Cuts: 131      287   38,05%
      0     0       39,8102   114       64,0000      Cuts: 50      296   37,80%
      0     0       39,8561   114       64,0000       Cuts: 3      303   37,72%
      0     0       39,9788   114       64,0000      Cuts: 10      315   37,53%
      0     0       40,0163   114       64,0000      Cuts: 16      328   37,47%
      0     0       40,0227   114       64,0000       Cuts: 6      335   37,46%
      0     0       40,0429   114       64,0000   ZeroHalf: 2      341   37,43%
      0     0       40,0653   114       64,0000       Cuts: 8      352   37,40%
      0     0       40,0837   114       64,0000       Cuts: 2      360   37,37%
      0     0       40,0914   114       64,0000   ZeroHalf: 1      366   37,36%
      0     0       40,0916   114       64,0000       Cuts: 7      369   37,36%
      0     0       40,0917   114       64,0000   MIRcuts: 15      370   37,36%
*     0+    0                           62,0000       40,0917            35,34%
      0     0        cutoff             62,0000       62,0000      370    0,00%
Elapsed time = 0,08 sec. (45,98 ticks, tree = 0,01 MB, solutions = 4)

Clique cuts applied:  17
Cover cuts applied:  24
Implied bound cuts applied:  1
Mixed integer rounding cuts applied:  40
Zero-half cuts applied:  6
Gomory fractional cuts applied:  10

Root node processing (before b&c):
  Real time             =    0,09 sec. (45,99 ticks)
Parallel b&c, 16 threads:
  Real time             =    0,00 sec. (0,00 ticks)
  Sync time (average)   =    0,00 sec.
  Wait time (average)   =    0,00 sec.
                          ------------
Total (root+branch&cut) =    0,09 sec. (45,99 ticks)
